words_easy_train/words_637_SAT.qaiger
aag 49 16 0 1 33
16
18
6
22
28
30
32
12
20
2
26
24
4
10
8
14
99
34 21 4
36 20 5
38 37 35
40 24 8
42 25 9
44 43 41
46 45 38
48 19 2
50 18 3
52 51 49
54 22 7
56 23 6
58 57 55
60 58 52
62 60 46
64 29 13
66 28 12
68 67 65
70 30 15
72 31 14
74 73 71
76 75 68
78 26 10
80 27 11
82 81 79
84 82 76
86 84 63
88 33 17
90 32 16
92 91 89
94 93 86
96 92 87
98 97 95
i0 1 x2[7]
i1 2 y2[0]
i2 1 x2[2]
i3 2 y2[2]
i4 2 y2[5]
i5 2 y2[6]
i6 2 y2[7]
i7 1 x2[5]
i8 2 y2[1]
i9 1 x2[0]
i10 2 y2[4]
i11 2 y2[3]
i12 1 x2[1]
i13 1 x2[4]
i14 1 x2[3]
i15 1 x2[6]
o0 bv[0]
c
simplified
  >=
    << 4
      175
    xor
      1 x2
      2 y2
