words_easy_train/words_637_SAT.qaiger.qdimacs
p cnf 49 100
a 1 2 3 4 5 6 7 8 0
e 9 10 11 12 13 14 15 16 17 18 19 20 21 22 23 24 25 26 27 28 29 30 31 32 33 34 35 36 37 38 39 40 41 42 43 44 45 46 47 48 49 0
10 -2 17 0
-10 -17 0
2 -17 0
-10 2 18 0
10 -18 0
-2 -18 0
18 17 19 0
-18 -19 0
-17 -19 0
-12 -4 20 0
12 -20 0
4 -20 0
12 4 21 0
-12 -21 0
-4 -21 0
21 20 22 0
-21 -22 0
-20 -22 0
22 -19 23 0
-22 -23 0
19 -23 0
9 -1 24 0
-9 -24 0
1 -24 0
-9 1 25 0
9 -25 0
-1 -25 0
25 24 26 0
-25 -26 0
-24 -26 0
-11 3 27 0
11 -27 0
-3 -27 0
11 -3 28 0
-11 -28 0
3 -28 0
28 27 29 0
-28 -29 0
-27 -29 0
-29 -26 30 0
29 -30 0
26 -30 0
-30 -23 31 0
30 -31 0
23 -31 0
14 6 32 0
-14 -32 0
-6 -32 0
-14 -6 33 0
14 -33 0
6 -33 0
33 32 34 0
-33 -34 0
-32 -34 0
-15 7 35 0
15 -35 0
-7 -35 0
15 -7 36 0
-15 -36 0
7 -36 0
36 35 37 0
-36 -37 0
-35 -37 0
37 -34 38 0
-37 -38 0
34 -38 0
-13 -5 39 0
13 -39 0
5 -39 0
13 5 40 0
-13 -40 0
-5 -40 0
40 39 41 0
-40 -41 0
-39 -41 0
-41 -38 42 0
41 -42 0
38 -42 0
-42 31 43 0
42 -43 0
-31 -43 0
16 8 44 0
-16 -44 0
-8 -44 0
-16 -8 45 0
16 -45 0
8 -45 0
45 44 46 0
-45 -46 0
-44 -46 0
46 -43 47 0
-46 -47 0
43 -47 0
-46 43 48 0
46 -48 0
-43 -48 0
48 47 49 0
-48 -49 0
-47 -49 0
-49 0
